96
30
0 31 32 33 35 37 39 40 41 43 46 47 50 52 56 57 58 62 63 65 72 73 74 76 80 82 84 88 91 92 93 94
1 31 32 33 35 38 39 40 41 43 44 46 47 50 51 52 57 58 61 62 63 73 74 77 80 81 84 86 88 91 93
2 31 32 33 36 39 40 41 43 44 46 47 50 52 54 56 57 58 59 62 64 65 66 71 72 74 78 80 81 82 84 87 88 89 90 91 92
3 31 32 33 35 38 39 40 43 46 47 50 51 52 54 58 59 62 63 65 66 69 71 72 73 74 77 80 81 82 84 87 89 90 92 93
4 32 35 36 38 39 40 41 43 44 46 50 52 54 55 56 57 58 60 64 66 71 72 73 74 77 80 84 88 92 93 94
5 31 32 35 36 38 39 40 43 44 46 50 52 55 58 61 64 72 73 74 77 79 80 81 82 84 87 88 90 93
6 32 33 37 38 39 40 44 46 50 51 52 54 55 58 61 64 69 71 72 74 77 80 84 87 88 90 92 94
7 30 31 32 36 38 39 40 44 45 46 47 50 53 54 55 58 59 61 62 64 65 69 72 74 77 78 81 84 87 88 89 90 93
8 31 32 35 36 37 38 39 43 44 47 52 53 54 57 61 69 72 74 76 78 80 81 82 86 92 93 94
9 32 33 36 38 40 43 44 47 52 54 57 58 62 67 69 72 76 80 81 82 83 85 88 90 91 93
10 31 35 37 38 39 40 43 44 46 48 52 53 54 56 57 58 59 61 62 64 65 66 67 69 71 72 73 76 81 84 89 90 91 93
11 36 38 44 48 54 56 58 61 62 66 71 73 74 77 80 81 82 84 87 88 90 91 92 93 95
12 32 35 37 42 43 44 46 48 49 50 54 58 62 69 70 72 73 74 76 80 84 86 87 88 89 90 92 93 94
13 31 32 33 36 37 39 43 52 54 55 57 59 61 65 69 72 74 79 81 82 84 88 90 91 92 94
14 40 47 55 58 59 63 64 67 71 74 77 81 86 87 89 91 92 94
15 31 33 35 37 38 40 46 47 55 58 61 62 63 64 65 74 76 80 81 86 87 88 90 91 93 94
16 31 32 33 35 36 40 46 47 50 52 55 59 60 66 71 75 77 82 84 88 90
17 31 32 33 36 40 43 44 46 47 50 52 54 57 58 65 69 72 76 78 80 81 86 87 89 94
18 36 39 44 46 50 54 57 58 66 72 78 80 88 91
19 31 35 37 38 39 41 43 49 54 56 57 58 61 63 64 65 66 81 90 91 94
20 32 37 43 47 48 52 65 66 76 77 80 81 82 84 92 93
21 31 33 35 51 55 57 59 61 64 65 74 77 86 92 93
22 33 42 44 51 61 62 64 66 68 87 90 91 94
23 36 40 46 74 80 82 83 84 88
24 36 48 51 52 58 72 77
25 69 70 71 76 78 91
26 30 32 37 63 69 72 73 89 91 95
27 34 50 52 67 68 75 76
28 31 45 47 51 94
29 30 32 65 88
